(set-logic HORN)
(set-info :source |
    Benchmark: C_VC
    Output by Princess (http://www.philipp.ruemmer.org/princess.shtml)
|)
(set-info :status unknown)
(declare-fun inv_main10 (Int Int Int Int Int Int Int Int) Bool)
(declare-fun inv_main18 (Int Int Int Int Int Int Int Int) Bool)
(declare-fun inv_main19 (Int Int Int Int Int Int Int Int) Bool)
(declare-fun inv_main208 (Int Int Int Int Int Int Int Int) Bool)
(declare-fun inv_main209 (Int Int Int Int Int Int Int Int) Bool)
(declare-fun inv_main210 (Int Int Int Int Int Int Int Int) Bool)
(declare-fun inv_main211 (Int Int Int Int Int Int Int Int) Bool)
(declare-fun inv_main212 (Int Int Int Int Int Int Int Int) Bool)
(declare-fun inv_main213 (Int Int Int Int Int Int Int Int) Bool)
(declare-fun inv_main214 (Int Int Int Int Int Int Int Int) Bool)
(declare-fun inv_main215 (Int Int Int Int Int Int Int Int) Bool)
(declare-fun inv_main216 (Int Int Int Int Int Int Int Int) Bool)
(declare-fun inv_main217 (Int Int Int Int Int Int Int Int) Bool)
(declare-fun inv_main218 (Int Int Int Int Int Int Int Int) Bool)
(declare-fun inv_main219 (Int Int Int Int Int Int Int Int) Bool)
(assert (forall ((var0 Int)) (forall ((var1 Int)) (forall ((var2 Int)) (forall ((var3 Int)) (forall ((var4 Int)) (forall ((var5 Int)) (forall ((var6 Int)) (forall ((var7 Int)) (inv_main10 var7 var2 var5 var0 var3 var6 var4 var1 ) ) ) ) ) ) ) ) ) )
(assert (forall ((var0 Int)) (forall ((var1 Int)) (forall ((var2 Int)) (forall ((var3 Int)) (forall ((var4 Int)) (forall ((var5 Int)) (forall ((var6 Int)) (forall ((var7 Int)) (or (not (inv_main19 var1 var4 var0 var7 var6 var5 var3 var2 ) ) (inv_main208 var1 var4 var0 var7 var6 var5 var3 var2 ) ) ) ) ) ) ) ) ) ) )
(assert (forall ((var0 Int)) (forall ((var1 Int)) (forall ((var2 Int)) (forall ((var3 Int)) (forall ((var4 Int)) (forall ((var5 Int)) (forall ((var6 Int)) (forall ((var7 Int)) (or (not (inv_main208 var1 var4 var0 var7 var6 var5 var3 var2 ) ) (inv_main209 var1 var4 var0 var7 var6 var5 var3 var2 ) ) ) ) ) ) ) ) ) ) )
(assert (forall ((var0 Int)) (forall ((var1 Int)) (forall ((var2 Int)) (forall ((var3 Int)) (forall ((var4 Int)) (forall ((var5 Int)) (forall ((var6 Int)) (forall ((var7 Int)) (or (not (inv_main209 var1 var4 var0 var7 var6 var5 var3 var2 ) ) (inv_main210 var1 var4 var0 var7 var6 var5 var3 var2 ) ) ) ) ) ) ) ) ) ) )
(assert (forall ((var0 Int)) (forall ((var1 Int)) (forall ((var2 Int)) (forall ((var3 Int)) (forall ((var4 Int)) (forall ((var5 Int)) (forall ((var6 Int)) (forall ((var7 Int)) (or (not (inv_main210 var1 var4 var0 var7 var6 var5 var3 var2 ) ) (inv_main211 var1 var4 var0 var7 var6 var5 var3 var2 ) ) ) ) ) ) ) ) ) ) )
(assert (forall ((var0 Int)) (forall ((var1 Int)) (forall ((var2 Int)) (forall ((var3 Int)) (forall ((var4 Int)) (forall ((var5 Int)) (forall ((var6 Int)) (forall ((var7 Int)) (or (not (inv_main211 var1 var4 var0 var7 var6 var5 var3 var2 ) ) (inv_main212 var1 var4 var0 var7 var6 var5 var3 var2 ) ) ) ) ) ) ) ) ) ) )
(assert (forall ((var0 Int)) (forall ((var1 Int)) (forall ((var2 Int)) (forall ((var3 Int)) (forall ((var4 Int)) (forall ((var5 Int)) (forall ((var6 Int)) (forall ((var7 Int)) (or (not (inv_main212 var1 var4 var0 var7 var6 var5 var3 var2 ) ) (inv_main213 var1 var4 var0 var7 var6 var5 var3 var2 ) ) ) ) ) ) ) ) ) ) )
(assert (forall ((var0 Int)) (forall ((var1 Int)) (forall ((var2 Int)) (forall ((var3 Int)) (forall ((var4 Int)) (forall ((var5 Int)) (forall ((var6 Int)) (forall ((var7 Int)) (or (not (inv_main213 var1 var4 var0 var7 var6 var5 var3 var2 ) ) (inv_main214 var1 var4 var0 var7 var6 var5 var3 var2 ) ) ) ) ) ) ) ) ) ) )
(assert (forall ((var0 Int)) (forall ((var1 Int)) (forall ((var2 Int)) (forall ((var3 Int)) (forall ((var4 Int)) (forall ((var5 Int)) (forall ((var6 Int)) (forall ((var7 Int)) (or (not (inv_main214 var1 var4 var0 var7 var6 var5 var3 var2 ) ) (inv_main215 var1 var4 var0 var7 var6 var5 var3 var2 ) ) ) ) ) ) ) ) ) ) )
(assert (forall ((var0 Int)) (forall ((var1 Int)) (forall ((var2 Int)) (forall ((var3 Int)) (forall ((var4 Int)) (forall ((var5 Int)) (forall ((var6 Int)) (forall ((var7 Int)) (or (not (inv_main215 var1 var4 var0 var7 var6 var5 var3 var2 ) ) (inv_main216 var1 var4 var0 var7 var6 var5 var3 var2 ) ) ) ) ) ) ) ) ) ) )
(assert (forall ((var0 Int)) (forall ((var1 Int)) (forall ((var2 Int)) (forall ((var3 Int)) (forall ((var4 Int)) (forall ((var5 Int)) (forall ((var6 Int)) (forall ((var7 Int)) (or (not (inv_main216 var1 var4 var0 var7 var6 var5 var3 var2 ) ) (inv_main217 var1 var4 var0 var7 var6 var5 var3 var2 ) ) ) ) ) ) ) ) ) ) )
(assert (forall ((var0 Int)) (forall ((var1 Int)) (forall ((var2 Int)) (forall ((var3 Int)) (forall ((var4 Int)) (forall ((var5 Int)) (forall ((var6 Int)) (forall ((var7 Int)) (or (not (inv_main217 var1 var4 var0 var7 var6 var5 var3 var2 ) ) (inv_main218 var1 var4 var0 var7 var6 var5 var3 var2 ) ) ) ) ) ) ) ) ) ) )
(assert (forall ((var0 Int)) (forall ((var1 Int)) (forall ((var2 Int)) (forall ((var3 Int)) (forall ((var4 Int)) (forall ((var5 Int)) (forall ((var6 Int)) (forall ((var7 Int)) (or (not (inv_main218 var1 var4 var0 var7 var6 var5 var3 var2 ) ) (inv_main219 var1 var4 var0 var7 var6 var5 var3 var2 ) ) ) ) ) ) ) ) ) ) )
(assert (forall ((var0 Int)) (forall ((var1 Int)) (forall ((var2 Int)) (forall ((var3 Int)) (forall ((var4 Int)) (forall ((var5 Int)) (forall ((var6 Int)) (forall ((var7 Int)) (or (not (inv_main10 var1 var4 var0 var7 var6 var5 var3 var2 ) ) (inv_main18 0 0 0 0 0 0 0 0 ) ) ) ) ) ) ) ) ) ) )
(assert (forall ((var0 Int)) (forall ((var1 Int)) (forall ((var2 Int)) (forall ((var3 Int)) (forall ((var4 Int)) (forall ((var5 Int)) (forall ((var6 Int)) (forall ((var7 Int)) (forall ((var8 Int)) (or (not (and (inv_main18 var1 var4 var0 var8 var6 var5 var3 var2 ) (= var7 0 ) ) ) (inv_main19 var1 var4 var0 var8 var6 var5 var3 var2 ) ) ) ) ) ) ) ) ) ) ) )
(assert (forall ((var0 Int)) (forall ((var1 Int)) (forall ((var2 Int)) (forall ((var3 Int)) (forall ((var4 Int)) (forall ((var5 Int)) (forall ((var6 Int)) (forall ((var7 Int)) (forall ((var8 Int)) (forall ((var9 Int)) (or (not (and (inv_main18 var1 var5 var0 var9 var7 var6 var4 var2 ) (and (<= 0 (+ var1 (- 1) ) ) (and (<= 0 (* (- 1) var9 ) ) (and (<= 0 var9 ) (and (not (= var8 0 ) ) (not (= var3 0 ) ) ) ) ) ) ) ) (inv_main18 (+ var1 (- 1) ) (+ var5 1 ) var0 1 var7 var6 var4 var2 ) ) ) ) ) ) ) ) ) ) ) ) )
(assert (forall ((var0 Int)) (forall ((var1 Int)) (forall ((var2 Int)) (forall ((var3 Int)) (forall ((var4 Int)) (forall ((var5 Int)) (forall ((var6 Int)) (forall ((var7 Int)) (forall ((var8 Int)) (forall ((var9 Int)) (forall ((var10 Int)) (or (not (and (inv_main18 var1 var5 var0 var10 var8 var6 var4 var2 ) (and (<= 0 (+ var1 (- 1) ) ) (and (<= 0 (* (- 1) var8 ) ) (and (<= 0 var8 ) (and (not (= var7 0 ) ) (and (= var9 0 ) (not (= var3 0 ) ) ) ) ) ) ) ) ) (inv_main18 (+ var1 (- 1) ) (+ var5 1 ) var0 var10 1 var6 var4 var2 ) ) ) ) ) ) ) ) ) ) ) ) ) )
(assert (forall ((var0 Int)) (forall ((var1 Int)) (forall ((var2 Int)) (forall ((var3 Int)) (forall ((var4 Int)) (forall ((var5 Int)) (forall ((var6 Int)) (forall ((var7 Int)) (forall ((var8 Int)) (forall ((var9 Int)) (forall ((var10 Int)) (forall ((var11 Int)) (or (not (and (inv_main18 var1 var6 var0 var11 var8 var7 var5 var3 ) (and (<= 0 (+ var0 (- 1) ) ) (and (<= 0 (+ 1 (* (- 1) var8 ) ) ) (and (<= 0 (+ var8 (- 1) ) ) (and (not (= var2 0 ) ) (and (= var10 0 ) (and (= var9 0 ) (not (= var4 0 ) ) ) ) ) ) ) ) ) ) (inv_main18 var1 var6 (+ var0 (- 1) ) var11 0 var7 var5 var3 ) ) ) ) ) ) ) ) ) ) ) ) ) ) )
(assert (forall ((var0 Int)) (forall ((var1 Int)) (forall ((var2 Int)) (forall ((var3 Int)) (forall ((var4 Int)) (forall ((var5 Int)) (forall ((var6 Int)) (forall ((var7 Int)) (forall ((var8 Int)) (forall ((var9 Int)) (forall ((var10 Int)) (forall ((var11 Int)) (forall ((var12 Int)) (or (not (and (inv_main18 var1 var6 var0 var12 var8 var7 var5 var2 ) (and (<= 0 (+ var1 (- 1) ) ) (and (<= 0 (* (- 1) var7 ) ) (and (<= 0 var7 ) (and (not (= var11 0 ) ) (and (= var4 0 ) (and (= var10 0 ) (and (= var9 0 ) (not (= var3 0 ) ) ) ) ) ) ) ) ) ) ) (inv_main18 (+ var1 (- 1) ) (+ var6 1 ) var0 var12 var8 1 var5 var2 ) ) ) ) ) ) ) ) ) ) ) ) ) ) ) )
(assert (forall ((var0 Int)) (forall ((var1 Int)) (forall ((var2 Int)) (forall ((var3 Int)) (forall ((var4 Int)) (forall ((var5 Int)) (forall ((var6 Int)) (forall ((var7 Int)) (forall ((var8 Int)) (forall ((var9 Int)) (forall ((var10 Int)) (forall ((var11 Int)) (forall ((var12 Int)) (forall ((var13 Int)) (or (not (and (inv_main18 var0 var12 var7 var8 var3 var2 var11 var9 ) (and (<= 0 (+ var7 (- 1) ) ) (and (<= 0 (+ 1 (* (- 1) var2 ) ) ) (and (<= 0 (+ var2 (- 1) ) ) (and (not (= var1 0 ) ) (and (= var5 0 ) (and (= var13 0 ) (and (= var6 0 ) (and (= var4 0 ) (not (= var10 0 ) ) ) ) ) ) ) ) ) ) ) ) (inv_main18 var0 var12 (+ var7 (- 1) ) var8 var3 0 var11 var9 ) ) ) ) ) ) ) ) ) ) ) ) ) ) ) ) )
(assert (forall ((var0 Int)) (forall ((var1 Int)) (forall ((var2 Int)) (forall ((var3 Int)) (forall ((var4 Int)) (forall ((var5 Int)) (forall ((var6 Int)) (forall ((var7 Int)) (forall ((var8 Int)) (forall ((var9 Int)) (forall ((var10 Int)) (forall ((var11 Int)) (forall ((var12 Int)) (forall ((var13 Int)) (forall ((var14 Int)) (or (not (and (inv_main18 var0 var12 var7 var8 var2 var1 var11 var9 ) (and (<= 0 (+ var0 (- 1) ) ) (and (<= 0 (* (- 1) var11 ) ) (and (<= 0 var11 ) (and (not (= var6 0 ) ) (and (= var14 0 ) (and (= var4 0 ) (and (= var13 0 ) (and (= var5 0 ) (and (= var3 0 ) (not (= var10 0 ) ) ) ) ) ) ) ) ) ) ) ) ) (inv_main18 (+ var0 (- 1) ) (+ var12 1 ) var7 var8 var2 var1 (+ var11 1 ) var9 ) ) ) ) ) ) ) ) ) ) ) ) ) ) ) ) ) )
(assert (forall ((var0 Int)) (forall ((var1 Int)) (forall ((var2 Int)) (forall ((var3 Int)) (forall ((var4 Int)) (forall ((var5 Int)) (forall ((var6 Int)) (forall ((var7 Int)) (forall ((var8 Int)) (forall ((var9 Int)) (forall ((var10 Int)) (forall ((var11 Int)) (forall ((var12 Int)) (forall ((var13 Int)) (forall ((var14 Int)) (forall ((var15 Int)) (or (not (and (inv_main18 var0 var12 var6 var7 var2 var1 var11 var8 ) (and (<= 0 (+ var6 (- 1) ) ) (and (<= 0 (+ 1 (* (- 1) var11 ) ) ) (and (<= 0 (+ var11 (- 1) ) ) (and (not (= var14 0 ) ) (and (= var9 0 ) (and (= var15 0 ) (and (= var4 0 ) (and (= var13 0 ) (and (= var5 0 ) (and (= var3 0 ) (not (= var10 0 ) ) ) ) ) ) ) ) ) ) ) ) ) ) (inv_main18 var0 var12 (+ var6 (- 1) ) var7 var2 var1 (+ var11 (- 1) ) var8 ) ) ) ) ) ) ) ) ) ) ) ) ) ) ) ) ) ) )
(assert (forall ((var0 Int)) (forall ((var1 Int)) (forall ((var2 Int)) (forall ((var3 Int)) (forall ((var4 Int)) (forall ((var5 Int)) (forall ((var6 Int)) (forall ((var7 Int)) (forall ((var8 Int)) (forall ((var9 Int)) (forall ((var10 Int)) (forall ((var11 Int)) (forall ((var12 Int)) (forall ((var13 Int)) (forall ((var14 Int)) (forall ((var15 Int)) (forall ((var16 Int)) (or (not (and (inv_main18 var0 var14 var7 var8 var3 var2 var13 var9 ) (and (<= 0 (* (- 1) var9 ) ) (and (<= 0 var9 ) (and (not (= var1 0 ) ) (and (= var10 0 ) (and (= var11 0 ) (and (= var16 0 ) (and (= var5 0 ) (and (= var15 0 ) (and (= var6 0 ) (and (= var4 0 ) (not (= var12 0 ) ) ) ) ) ) ) ) ) ) ) ) ) ) (inv_main18 (+ var0 1 ) var14 var7 var8 var3 var2 var13 1 ) ) ) ) ) ) ) ) ) ) ) ) ) ) ) ) ) ) ) )
(assert (forall ((var0 Int)) (forall ((var1 Int)) (forall ((var2 Int)) (forall ((var3 Int)) (forall ((var4 Int)) (forall ((var5 Int)) (forall ((var6 Int)) (forall ((var7 Int)) (forall ((var8 Int)) (forall ((var9 Int)) (forall ((var10 Int)) (forall ((var11 Int)) (forall ((var12 Int)) (forall ((var13 Int)) (forall ((var14 Int)) (forall ((var15 Int)) (forall ((var16 Int)) (forall ((var17 Int)) (or (not (and (inv_main18 var0 var14 var6 var7 var2 var1 var13 var8 ) (and (<= 0 (+ var14 (- 1) ) ) (and (<= 0 (+ 1 (* (- 1) var8 ) ) ) (and (<= 0 (+ var8 (- 1) ) ) (and (not (= var16 0 ) ) (and (= var11 0 ) (and (= var10 0 ) (and (= var9 0 ) (and (= var17 0 ) (and (= var4 0 ) (and (= var15 0 ) (and (= var5 0 ) (and (= var3 0 ) (not (= var12 0 ) ) ) ) ) ) ) ) ) ) ) ) ) ) ) ) (inv_main18 var0 (+ var14 (- 1) ) var6 var7 var2 var1 var13 2 ) ) ) ) ) ) ) ) ) ) ) ) ) ) ) ) ) ) ) ) )
(assert (forall ((var0 Int)) (forall ((var1 Int)) (forall ((var2 Int)) (forall ((var3 Int)) (forall ((var4 Int)) (forall ((var5 Int)) (forall ((var6 Int)) (forall ((var7 Int)) (forall ((var8 Int)) (forall ((var9 Int)) (forall ((var10 Int)) (forall ((var11 Int)) (forall ((var12 Int)) (forall ((var13 Int)) (forall ((var14 Int)) (forall ((var15 Int)) (forall ((var16 Int)) (forall ((var17 Int)) (forall ((var18 Int)) (or (not (and (inv_main18 var1 var16 var7 var8 var3 var2 var15 var9 ) (and (<= 0 (+ 2 (* (- 1) var9 ) ) ) (and (<= 0 (+ var9 (- 2) ) ) (and (not (= var14 0 ) ) (and (= var0 0 ) (and (= var12 0 ) (and (= var11 0 ) (and (= var10 0 ) (and (= var18 0 ) (and (= var5 0 ) (and (= var17 0 ) (and (= var6 0 ) (and (= var4 0 ) (not (= var13 0 ) ) ) ) ) ) ) ) ) ) ) ) ) ) ) ) (inv_main18 var1 var16 (+ var7 1 ) var8 var3 var2 var15 3 ) ) ) ) ) ) ) ) ) ) ) ) ) ) ) ) ) ) ) ) ) )
(assert (forall ((var0 Int)) (forall ((var1 Int)) (forall ((var2 Int)) (forall ((var3 Int)) (forall ((var4 Int)) (forall ((var5 Int)) (forall ((var6 Int)) (forall ((var7 Int)) (forall ((var8 Int)) (forall ((var9 Int)) (forall ((var10 Int)) (forall ((var11 Int)) (forall ((var12 Int)) (forall ((var13 Int)) (forall ((var14 Int)) (forall ((var15 Int)) (forall ((var16 Int)) (forall ((var17 Int)) (forall ((var18 Int)) (forall ((var19 Int)) (or (not (and (inv_main18 var1 var16 var8 var9 var4 var3 var15 var10 ) (and (= var8 0 ) (and (<= 0 (+ 3 (* (- 1) var10 ) ) ) (and (<= 0 (+ var10 (- 3) ) ) (and (not (= var18 0 ) ) (and (= var2 0 ) (and (= var0 0 ) (and (= var13 0 ) (and (= var12 0 ) (and (= var11 0 ) (and (= var19 0 ) (and (= var6 0 ) (and (= var17 0 ) (and (= var7 0 ) (and (= var5 0 ) (not (= var14 0 ) ) ) ) ) ) ) ) ) ) ) ) ) ) ) ) ) ) (inv_main18 var1 var16 var8 var9 var4 var3 var15 0 ) ) ) ) ) ) ) ) ) ) ) ) ) ) ) ) ) ) ) ) ) ) )
(assert (forall ((var0 Int)) (forall ((var1 Int)) (forall ((var2 Int)) (forall ((var3 Int)) (forall ((var4 Int)) (forall ((var5 Int)) (forall ((var6 Int)) (forall ((var7 Int)) (forall ((var8 Int)) (forall ((var9 Int)) (forall ((var10 Int)) (forall ((var11 Int)) (forall ((var12 Int)) (forall ((var13 Int)) (forall ((var14 Int)) (forall ((var15 Int)) (forall ((var16 Int)) (forall ((var17 Int)) (forall ((var18 Int)) (forall ((var19 Int)) (or (not (and (inv_main18 var1 var17 var8 var9 var4 var3 var16 var10 ) (and (<= 0 (+ var8 (- 1) ) ) (and (<= 0 (+ 1 (* (- 1) var9 ) ) ) (and (<= 0 (+ var9 (- 1) ) ) (and (= var14 0 ) (and (= var2 0 ) (and (= var0 0 ) (and (= var13 0 ) (and (= var12 0 ) (and (= var11 0 ) (and (= var19 0 ) (and (= var6 0 ) (and (= var18 0 ) (and (= var7 0 ) (and (= var5 0 ) (not (= var15 0 ) ) ) ) ) ) ) ) ) ) ) ) ) ) ) ) ) ) (inv_main18 var1 var17 (+ var8 (- 1) ) 0 var4 var3 var16 var10 ) ) ) ) ) ) ) ) ) ) ) ) ) ) ) ) ) ) ) ) ) ) )
(assert (forall ((var0 Int)) (forall ((var1 Int)) (forall ((var2 Int)) (forall ((var3 Int)) (forall ((var4 Int)) (forall ((var5 Int)) (forall ((var6 Int)) (forall ((var7 Int)) (not (and (inv_main19 var1 var4 var0 var7 var6 var5 var3 var2 ) (not (<= 0 (+ var2 (* (- 1) var0 ) ) ) ) ) ) ) ) ) ) ) ) ) ) )
(assert (forall ((var0 Int)) (forall ((var1 Int)) (forall ((var2 Int)) (forall ((var3 Int)) (forall ((var4 Int)) (forall ((var5 Int)) (forall ((var6 Int)) (forall ((var7 Int)) (not (and (inv_main208 var1 var4 var0 var7 var6 var5 var3 var2 ) (not (<= 0 (+ 1 (* (- 1) var7 ) ) ) ) ) ) ) ) ) ) ) ) ) ) )
(assert (forall ((var0 Int)) (forall ((var1 Int)) (forall ((var2 Int)) (forall ((var3 Int)) (forall ((var4 Int)) (forall ((var5 Int)) (forall ((var6 Int)) (forall ((var7 Int)) (not (and (inv_main209 var1 var4 var0 var7 var6 var5 var3 var2 ) (not (<= 0 (+ 1 (* (- 1) var6 ) ) ) ) ) ) ) ) ) ) ) ) ) ) )
(assert (forall ((var0 Int)) (forall ((var1 Int)) (forall ((var2 Int)) (forall ((var3 Int)) (forall ((var4 Int)) (forall ((var5 Int)) (forall ((var6 Int)) (forall ((var7 Int)) (not (and (inv_main210 var1 var4 var0 var7 var6 var5 var3 var2 ) (not (<= 0 (+ 1 (* (- 1) var5 ) ) ) ) ) ) ) ) ) ) ) ) ) ) )
(assert (forall ((var0 Int)) (forall ((var1 Int)) (forall ((var2 Int)) (forall ((var3 Int)) (forall ((var4 Int)) (forall ((var5 Int)) (forall ((var6 Int)) (forall ((var7 Int)) (not (and (inv_main211 var1 var4 var0 var7 var6 var5 var3 var2 ) (not (<= 0 (+ 1 (* (- 1) var3 ) ) ) ) ) ) ) ) ) ) ) ) ) ) )
(assert (forall ((var0 Int)) (forall ((var1 Int)) (forall ((var2 Int)) (forall ((var3 Int)) (forall ((var4 Int)) (forall ((var5 Int)) (forall ((var6 Int)) (forall ((var7 Int)) (not (and (inv_main212 var1 var4 var0 var7 var6 var5 var3 var2 ) (not (<= 0 (+ 3 (* (- 1) var2 ) ) ) ) ) ) ) ) ) ) ) ) ) ) )
(assert (forall ((var0 Int)) (forall ((var1 Int)) (forall ((var2 Int)) (forall ((var3 Int)) (forall ((var4 Int)) (forall ((var5 Int)) (forall ((var6 Int)) (forall ((var7 Int)) (not (and (inv_main213 var1 var4 var0 var7 var6 var5 var3 var2 ) (not (<= 0 var3 ) ) ) ) ) ) ) ) ) ) ) ) )
(assert (forall ((var0 Int)) (forall ((var1 Int)) (forall ((var2 Int)) (forall ((var3 Int)) (forall ((var4 Int)) (forall ((var5 Int)) (forall ((var6 Int)) (forall ((var7 Int)) (not (and (inv_main214 var1 var4 var0 var7 var6 var5 var3 var2 ) (not (<= 0 var5 ) ) ) ) ) ) ) ) ) ) ) ) )
(assert (forall ((var0 Int)) (forall ((var1 Int)) (forall ((var2 Int)) (forall ((var3 Int)) (forall ((var4 Int)) (forall ((var5 Int)) (forall ((var6 Int)) (forall ((var7 Int)) (not (and (inv_main215 var1 var4 var0 var7 var6 var5 var3 var2 ) (not (<= 0 var6 ) ) ) ) ) ) ) ) ) ) ) ) )
(assert (forall ((var0 Int)) (forall ((var1 Int)) (forall ((var2 Int)) (forall ((var3 Int)) (forall ((var4 Int)) (forall ((var5 Int)) (forall ((var6 Int)) (forall ((var7 Int)) (not (and (inv_main216 var1 var4 var0 var7 var6 var5 var3 var2 ) (not (<= 0 var7 ) ) ) ) ) ) ) ) ) ) ) ) )
(assert (forall ((var0 Int)) (forall ((var1 Int)) (forall ((var2 Int)) (forall ((var3 Int)) (forall ((var4 Int)) (forall ((var5 Int)) (forall ((var6 Int)) (forall ((var7 Int)) (not (and (inv_main217 var1 var4 var0 var7 var6 var5 var3 var2 ) (not (<= 0 var0 ) ) ) ) ) ) ) ) ) ) ) ) )
(assert (forall ((var0 Int)) (forall ((var1 Int)) (forall ((var2 Int)) (forall ((var3 Int)) (forall ((var4 Int)) (forall ((var5 Int)) (forall ((var6 Int)) (forall ((var7 Int)) (not (and (inv_main218 var1 var4 var0 var7 var6 var5 var3 var2 ) (not (<= 0 var4 ) ) ) ) ) ) ) ) ) ) ) ) )
(assert (forall ((var0 Int)) (forall ((var1 Int)) (forall ((var2 Int)) (forall ((var3 Int)) (forall ((var4 Int)) (forall ((var5 Int)) (forall ((var6 Int)) (forall ((var7 Int)) (not (and (inv_main219 var1 var4 var0 var7 var6 var5 var3 var2 ) (not (<= 0 var1 ) ) ) ) ) ) ) ) ) ) ) ) )
(check-sat)
